(declare-const |havoc:12:36| Int)
(declare-const |havoc:15| Int)
(declare-const |phi_tmp___4:41:43:46| Int)
(declare-const |phi_c1:77| Int)
(declare-const |havoc:31:75| Int)
(declare-const |phi_tmp___4:44:47| Int)
(declare-const |phi_tmp___4:37:40:42:45| Int)
(declare-const |phi_x2:79| Int)
(declare-const havoc Int)
(declare-const |havoc:8:34| Int)
(declare-const |phi_x1:80| Int)
(declare-const |havoc:29| Int)
(declare-const |phi_x3:78| Int)
(declare-const |havoc:10:35| Int)
(declare-const |phi_c2:76| Int)
(declare-const |havoc:2| Int)
(declare-const |havoc:21| Int)
(declare-const |havoc:17| Int)
(declare-const |havoc:30| Int)
(declare-const |havoc:28:74| Int)
(declare-const |havoc:4| Int)
(assert (and (<= (- havoc) 0) (<= (- |havoc:2|) 0) (<= (- |havoc:4|) 0)
               (or (and (not (= |havoc:15| 0)) (<= (- |havoc:8:34|) 0)
                          (<= (- |havoc:10:35|) 0) (<= (- |havoc:12:36|) 0)
                          (= (+ (- |phi_x1:80|) |havoc:12:36|) 0)
                          (= (+ (- |phi_x2:79|) |havoc:10:35|) 0)
                          (= (+ (- |phi_x3:78|) |havoc:8:34|) 0)
                          (= (+ (- |phi_c1:77|) |havoc:31:75|) 0)
                          (= (+ (- |phi_c2:76|) |havoc:28:74|) 0))
                     (and (= |havoc:17| 0) (= (+ (- |phi_x1:80|) havoc) 0)
                            (= (+ (- |phi_x2:79|) |havoc:2|) 0)
                            (= (+ (- |phi_x3:78|) |havoc:4|) 0)
                            (= (+ |havoc:29| (- |phi_c1:77|)) 0)
                            (= (+ |havoc:30| (- |phi_c2:76|)) 0)))
               (= |havoc:21| 0)
               (or (and (not (= |phi_x1:80| 0))
                          (or (and (not (= |phi_x2:79| 0))
                                     (or (and (not (= |phi_x3:78| 0))
                                                (= (- |phi_tmp___4:37:40:42:45|) 0))
                                           (and (= |phi_x3:78| 0)
                                                  (= (+ (- |phi_tmp___4:37:40:42:45|)
                                                          1) 0)))
                                     (= (+ (- |phi_tmp___4:41:43:46|)
                                             |phi_tmp___4:37:40:42:45|) 0))
                                (and (= |phi_x2:79| 0)
                                       (= (+ (- |phi_tmp___4:41:43:46|) 1) 0)))
                          (= (+ (- |phi_tmp___4:44:47|)
                                  |phi_tmp___4:41:43:46|) 0))
                     (and (= |phi_x1:80| 0)
                            (= (+ (- |phi_tmp___4:44:47|) 1) 0)))
               (= |phi_tmp___4:44:47| 0)))
(check-sat)
